seed= 2052018 ;
N= 10 ;
M= 2 ;
F= 2 ;
K= 4 ;
T= 60 ;

p=[ 4 4 4 4 4 16 16 16 16 16 ];
r=[ 2 4 8 4 6 5 2 7 4 3 ];
d=[ 7 0 9 1 11 7 1 5 5 0 ];
s=[ 1 1 1 1 1 1 1 1 1 1 ];
w=[ 1 3 1 1 2 3 3 3 5 3 ];
f=[ 1 1 1 1 1 2 2 2 2 2 ];

e1=[ 10 10 10 10 10 10 10 10 10 10 10 10 10 10 10 10 10 10 10 10 10 10 10 10 10 10 10 10 10 10 8 8 8 8 8 8 8 8 8 8 8 8 8 8 8 8 8 8 8 8 8 8 8 8 8 8 8 8 8 8 ];
e2=[ 10 10 10 10 10 10 10 10 10 10 10 10 10 10 10 10 10 10 10 10 9 9 9 9 9 9 9 9 9 9 8 8 8 8 8 8 8 8 8 8 8 8 8 8 8 8 8 8 8 8 9 9 9 9 9 9 9 9 9 9 ];